certificates/rado_a7_c74_N15.cnf
c Rad2 upper bound instance: x1 + 7*x2 - x3 = 74, interval [1,15]
p cnf 15 62
1 4 11 0
-1 -4 -11 0
1 11 12 0
-1 -11 -12 0
2 5 11 0
-2 -5 -11 0
2 12 0
-2 -12 0
3 6 11 0
-3 -6 -11 0
3 12 13 0
-3 -12 -13 0
4 7 11 0
-4 -7 -11 0
4 12 14 0
-4 -12 -14 0
1 5 10 0
-1 -5 -10 0
5 8 11 0
-5 -8 -11 0
5 12 15 0
-5 -12 -15 0
2 6 10 0
-2 -6 -10 0
6 9 11 0
-6 -9 -11 0
3 7 10 0
-3 -7 -10 0
7 10 11 0
-7 -10 -11 0
4 8 10 0
-4 -8 -10 0
8 11 0
-8 -11 0
5 9 10 0
-5 -9 -10 0
9 11 12 0
-9 -11 -12 0
6 10 0
-6 -10 0
10 11 13 0
-10 -11 -13 0
11 14 0
-11 -14 0
1 9 12 0
-1 -9 -12 0
8 10 12 0
-8 -10 -12 0
11 12 15 0
-11 -12 -15 0
2 9 13 0
-2 -9 -13 0
9 10 13 0
-9 -10 -13 0
3 9 14 0
-3 -9 -14 0
10 14 0
-10 -14 0
4 9 15 0
-4 -9 -15 0
10 11 15 0
-10 -11 -15 0
