certificates/rado_a7_c74_N15.drat
-12 11 -15 0
-14 -15 0
-15 0
12 -11 0
-10 -11 0
d -10 -13 -11 0
14 0
-11 0
-10 0
8 0
12 0
0
